submitit INFO (2023-04-30 13:43:43,570) - Starting with JobEnvironment(job_id=27528, hostname=cpunode24, local_rank=4(5), node=0(1), global_rank=4(5))
submitit INFO (2023-04-30 13:43:43,570) - Loading pickle: /h/30/pashootan/Matrix-Mult-CP/src/../logs/2x2x2_5_Apr30_13:43:41/27528_submitted.pkl
 ! --------------------------------------------------- CP Optimizer 22.1.1.0 --
 ! Satisfiability problem - 60 variables, 64 constraints
 ! TimeLimit            = 7200
 ! Workers              = 8
 ! LogPeriod            = 10000000
 ! RandomSeed           = 4848
 ! Initial process time : 0.01s (0.01s extraction + 0.00s propagation)
 !  . Log search space  : 95.1 (before), 95.1 (after)
 !  . Memory usage      : 398.3 kB (before), 398.3 kB (after)
 ! Using parallel search with 8 workers.
 ! ----------------------------------------------------------------------------
 !               Branches  Non-fixed    W       Branch decision
                   10000k          4    8   F    -1  = W4_2
                   10000k          6    3         0  = U1_2
                   10000k          5    7         0  = W2_3
                   10000k          4    5   F     1  = U0_3
                   10000k          4    2         1 != U1_3
                   10000k          4    6         1  = U3_1
                   10000k          4    1   F     1 != U2_0
                   10000k          5    4         1  = V4_0
                   20000k          4    8         0 != W2_2
                   20000k          6    3   F     1  = W0_3
                   20000k          6    5   F    -1  = U1_3
                   20000k          7    7        -1  = V0_1
                   20000k          5    2         0 != U1_1
                   20000k          6    4   F     0  = V4_2
                   20000k          5    1        -1  = V4_1
                   20000k          4    6         1 != U4_0
                   30000k          4    8   F     0  = V2_1
                   30000k          7    3   F     0  = U4_0
                   30000k          8    7   F     0 != U3_0
                   30000k          7    5         1 != W0_0
 ! Time = 295.63s, Average fail depth = 19, Memory usage = 143.3 MB
 !               Branches  Non-fixed    W       Branch decision
                   30000k          5    4         0  = U2_3
                   30000k          6    6         1  = U2_3
                   30000k          5    1   F    -1  = U0_0
                   30000k          6    2   F     0 != V2_2
                   40000k          4    8        -1 != U2_0
                   40000k          8    3        -1 != W3_3
                   40000k          9    7   F    -1 != W1_1
                   40000k          7    5   F     1  = U3_0
                   40000k          6    6         1 != W0_3
                   40000k          7    2   F     0  = V3_3
                   40000k          6    1         1  = W4_0
                   40000k          7    4   F     0 != U0_1
                   50000k          4    8   F     1  = W4_1
                   50000k          8    3        -1  = U3_2
                   50000k          7    7        -1 != V2_1
                   50000k          6    6   F     1 != W3_0
                   50000k          7    5        -1  = W1_1
                   50000k          7    4   F     0  = V3_0
                   50000k          6    2   F     1  = W1_3
                   50000k          7    1   F    -1 != W4_0
 ! Time = 501.22s, Average fail depth = 19, Memory usage = 229.2 MB
 !               Branches  Non-fixed    W       Branch decision
                   60000k          7    7   F    -1 != V2_1
                   60000k          4    8         1  = W0_1
                   60000k          7    3   F     0  = V1_1
                   60000k          5    6   F     1 != U0_3
                   60000k          7    5        -1 != W0_3
                   60000k          7    4         1  = V3_1
                   60000k          8    1   F     0 != W4_3
                   60000k          7    2   F     1  = W2_3
                   70000k          4    8   F     1  = U2_3
                   70000k          7    3   F     1 != W0_0
                   70000k          8    7        -1  = V4_2
                   70000k          5    6        -1  = W3_3
                   70000k          7    5   F    -1  = W0_0
                   70000k          6    4   F     0  = W2_0
                   70000k          7    1         0 != W3_0
                   70000k          7    2   F     1  = V4_2
                   80000k          9    7   F     1 != W0_2
                   80000k          4    8            -
                   80000k          7    3   F     1 != U0_3
                   80000k          6    5         0 != V1_1
 ! Time = 797.49s, Average fail depth = 19, Memory usage = 356.8 MB
 !               Branches  Non-fixed    W       Branch decision
                   80000k          6    6   F     0 != U1_2
                   80000k          6    4        -1  = W2_1
                   80000k          7    2   F     0 != U3_1
                   80000k          7    1   F     1  = W0_0
                   90000k          7    7   F    -1 != V1_1
                   90000k          4    8         0 != U3_3
                   90000k          6    3        -1 != V0_1
                   90000k          6    6         1 != U3_1
                   90000k          7    4         0 != V0_3
                   90000k          6    5   F     1 != W0_0
                   90000k          7    2   F    -1 != V3_2
                   90000k          9    1        -1  = W2_3
                     100M          7    7   F     0  = U2_1
                     100M          4    8            -
                     100M          7    2        -1 != V3_1
                     100M          8    4         0  = W4_3
                     100M          7    5         0 != W4_3
                     100M          7    1   F    -1  = W4_3
                     100M          6    6         1 != U3_1
                     100M          7    3   F    -1  = U3_2
 ! Time = 1010.47s, Average fail depth = 19, Memory usage = 444.1 MB
 !               Branches  Non-fixed    W       Branch decision
                     110M          7    7   F    -1  = W0_2
                     110M          4    8         1 != V4_0
                     110M          7    2   F     0  = U2_0
                     110M          8    5   F    -1 != U2_3
                     110M          6    3   F    -1  = U2_2
                     110M          9    4   F     1  = W3_1
                     110M          7    6   F    -1  = U0_1
                     110M          8    1         0 != W4_3
                     120M          4    8   F     1 != W3_3
                     120M          7    7        -1 != U1_0
                     120M          8    2         0  = V2_1
                     120M          7    5   F     1 != U0_1
                     120M          7    3   F    -1  = U1_3
                     120M          7    6         1 != V0_3
                     120M          7    4   F    -1 != U1_2
                     120M          7    1         1 != U2_1
                     130M          4    8   F    -1 != V2_1
                     130M          7    7         1 != U1_1
                     130M          8    2         1 != U3_1
                     130M          8    5   F     0  = V2_1
 ! Time = 1314.42s, Average fail depth = 19, Memory usage = 569.9 MB
 !               Branches  Non-fixed    W       Branch decision
                     130M          7    6   F     0  = W3_3
                     130M          6    3         0 != U4_3
                     130M          7    4         1  = V2_1
                     130M          8    1         1 != U1_1
                     140M          4    8   F     1 != W0_2
                     140M          9    7        -1 != W1_3
                     140M          8    2        -1 != W4_0
                     140M          8    5   F    -1 != U2_3
                     140M          7    6        -1 != U4_1
                     140M          6    3        -1 != U4_1
                     140M          8    4   F    -1  = W4_3
                     140M          7    1         1 != V2_3
                     150M          4    8   F    -1 != W4_3
                     150M          8    2         1  = W0_1
                     150M          7    5   F     0  = U1_1
                     150M          7    7   F    -1 != V3_0
                     150M          7    6         1  = V2_1
                     150M          7    3         1  = U2_1
                     150M          7    4        -1 != W0_1
                     150M          8    1        -1 != W2_0
 ! Time = 1532.31s, Average fail depth = 19, Memory usage = 661.4 MB
 !               Branches  Non-fixed    W       Branch decision
                     160M          4    8        -1  = W4_1
                     160M          7    2   F    -1 != U0_0
                     160M          8    7        -1  = V3_2
                     160M          7    6   F     1  = W1_0
                     160M          7    3   F    -1  = V3_2
                     160M          7    5   F    -1 != W2_0
                     160M          8    4   F     0 != V4_2
                     160M          9    1   F    -1 != U3_3
                     170M          6    8   F        -
                     170M          8    2        -1  = V4_1
                     170M          8    6         0 != V1_3
                     170M          8    3         0 != V1_0
                     170M          8    5         0 != V2_1
                     170M          9    7         1  = V3_3
                     170M          8    1         0  = V0_3
                     170M          7    4   F    -1 != U2_2
                     180M          6    8   F     1  = W1_2
                     180M          7    2         0  = W0_3
                     180M          7    3   F     1  = V3_2
                     180M          7    6   F     0  = W1_1
 ! Time = 1822.06s, Average fail depth = 19, Memory usage = 778.7 MB
 !               Branches  Non-fixed    W       Branch decision
                     180M          8    5   F     0  = U2_1
                     180M          7    7         1 != W4_0
                     180M          8    1   F     0  = W4_0
                     180M          7    4   F     1 != W1_1
                     190M          5    8        -1 != U4_2
                     190M          8    2   F     1 != U0_0
                     190M          8    5         1 != V3_2
                     190M          7    3         1  = U4_2
                     190M          7    7   F    -1  = V0_2
                     190M          8    6        -1  = W3_3
                     190M          7    1         1  = V0_2
                     190M          8    4         0  = W0_3
                     200M          6    8         1 != V1_2
                     200M          9    7        -1 != U0_0
                     200M          8    2        -1 != V1_2
                     200M          8    6   F    -1 != U0_2
                     200M          7    5   F    -1 != V4_0
                     200M          8    1   F     0  = U3_0
                     200M          7    3   F     0 != V1_1
                     200M          7    4   F     0  = W0_1
 ! Time = 2046.87s, Average fail depth = 19, Memory usage = 871.7 MB
 !               Branches  Non-fixed    W       Branch decision
                     210M          5    8         0  = V4_0
                     210M         10    7   F     0 != W4_0
                     210M          7    6        -1  = V3_2
                     210M          7    5   F     1 != W2_3
                     210M          7    2        -1  = W3_1
                     210M          7    3        -1 != W2_1
                     210M          8    1   F     1  = W4_0
                     210M          7    4   F    -1 != V4_1
                     220M          5    8   F    -1 != U3_2
                     220M          7    6        -1  = V2_2
                     220M         12    7         1 != W0_1
                     220M          7    5   F    -1  = V0_0
                     220M          8    1         1  = V4_3
                     220M          7    2   F     0  = V2_2
                     220M          7    4         0 != W4_0
                     220M          7    3         0 != W3_3
                     230M          6    8   F     0 != W0_2
                     230M          8    6   F    -1 != U3_1
                     230M          8    5   F    -1  = U2_2
                     230M          7    1         0  = U1_3
 ! Time = 2339.81s, Average fail depth = 19, Memory usage = 987.2 MB
 !               Branches  Non-fixed    W       Branch decision
                     230M          7    2         0 != V4_2
                     230M          6    3        -1 != W1_0
                     230M          9    4         1  = W4_1
                     230M          9    7   F     0  = U4_0
                     240M          4    8   F     0  = W0_0
                     240M          6    1   F     1  = U1_1
                     240M          8    5         1 != W1_0
                     240M          7    6   F     1 != W4_0
                     240M          7    3        -1  = U4_2
                     240M          9    7   F     1 != U0_3
                     240M          8    2   F     0  = V2_3
                     240M          7    4         0 != U1_1
                     250M          5    8         0  = V2_3
                     250M          8    1   F     0  = U2_1
                     250M          7    5   F    -1 != W3_0
                     250M          7    6         1 != V1_3
                     250M         12    7         1  = V0_1
                     250M          7    4        -1 != V0_1
                     250M          7    2         1 != W1_3
                     250M          9    3   F     0  = V0_0
 ! Time = 2566.52s, Average fail depth = 19, Memory usage = 1.1 GB
 !               Branches  Non-fixed    W       Branch decision
                     260M          5    8   F    -1  = V0_2
                     260M          9    1         1  = V2_1
                     260M          8    5        -1  = W3_1
                     260M          8    6         1  = V3_3
                     260M          7    4         0 != U2_1
                     260M          8    2   F     1 != U1_1
                     260M          8    3         0  = W3_3
                     260M          8    7         0  = W2_0
                     270M          5    8   F     1  = V3_1
                     270M          7    5         0 != U1_1
                     270M          8    1         1  = V2_0
                     270M          7    6   F     1  = W4_3
                     270M          8    4        -1 != W3_3
                     270M          8    3        -1  = W1_0
                     270M          7    2        -1 != W4_0
                     270M          7    7   F    -1  = U3_1
                     280M          6    8   F     0  = W1_1
                     280M          7    1   F    -1 != U4_1
                     280M          8    4   F     0  = U1_1
                     280M          6    6         0  = W4_1
 ! Time = 2856.09s, Average fail depth = 19, Memory usage = 1.2 GB
 !               Branches  Non-fixed    W       Branch decision
                     280M          8    5         0  = V3_1
                     280M          8    3   F     1  = U3_3
                     280M          7    2   F     1  = W4_0
                     280M          8    7        -1 != U2_1
                     290M          4    8        -1  = W2_2
                     290M          8    1   F     0  = U4_1
                     290M          9    4   F    -1 != W3_3
                     290M          8    6   F     1 != W1_3
                     290M          8    5         0 != V3_1
                     290M          7    7        -1 != U0_0
                     290M          7    2         0 != U1_1
                     290M          8    3   F    -1  = W0_0
                     300M          5    8   F     1  = U0_0
                     300M          9    1        -1  = W0_3
                     300M          8    6   F     0 != V2_2
                     300M          8    5   F    -1 != U0_0
                     300M          8    4         1  = W4_3
                     300M          6    3   F    -1 != V4_1
                     300M          8    2         1  = V4_2
                     300M          9    7   F     0 != W1_2
 ! Time = 3085.56s, Average fail depth = 19, Memory usage = 1.3 GB
 !               Branches  Non-fixed    W       Branch decision
                     310M          5    8         1  = W1_1
                     310M          7    6         1  = W0_3
                     310M          9    1        -1 != W0_0
                     310M          8    5         1 != W0_3
                     310M          8    4   F     1 != U0_0
                     310M          7    3   F    -1  = W0_1
                     310M          8    2         0  = V0_3
                     310M          7    7   F     0  = W1_3
                     320M          5    8            -
                     320M          7    1   F     0 != U3_3
                     320M          8    6         0 != V2_2
                     320M          8    5   F     1  = U4_2
                     320M          8    3   F     1  = V0_0
                     320M          8    4         0 != U2_1
                     320M          8    2         0  = W4_3
                     320M         11    7        -1 != V4_2
                     330M          6    8   F    -1 != U4_0
                     330M          8    1   F    -1 != W2_0
                     330M          9    6   F     0 != U3_3
                     330M          7    5   F     1  = V1_1
 ! Time = 3376.27s, Average fail depth = 19, Memory usage = 1.4 GB
 !               Branches  Non-fixed    W       Branch decision
                     330M         10    4   F    -1 != V1_1
                     330M         10    3        -1 != U3_3
                     330M          8    2   F    -1 != W2_0
                     330M          8    7   F    -1  = U0_3
                     340M          6    8   F    -1 != W0_3
                     340M          8    6   F     0  = W0_1
                     340M          8    1         0 != U2_1
                     340M          8    5        -1 != V0_1
                     340M          8    4   F     1 != U2_0
                     340M          8    3         0  = U3_3
                     340M          8    2         1  = V4_2
                     340M          9    7         1  = W2_2
                     350M          5    8         1  = U2_1
                     350M          9    1         1 != W3_3
                     350M          9    3        -1  = V2_3
                     350M          8    4         1 != V4_1
                     350M          8    6   F     0 != W2_0
                     350M          9    5   F     1  = U4_3
                     350M          7    2   F    -1  = U2_3
                     350M         13    7   F     1  = U1_1
 ! Time = 3616.04s, Average fail depth = 19, Memory usage = 1.5 GB
 !               Branches  Non-fixed    W       Branch decision
                     360M          5    8   F        -
                     360M          8    1         0 != U2_3
                     360M          8    4         1  = V3_1
                     360M         11    3        -1 != W1_2
                     360M          7    6        -1 != V2_2
                     360M          8    5   F     1  = W2_3
                     360M          8    2   F     0 != V3_2
                     360M          7    7   F    -1 != V4_2
                     370M          5    8   F     0  = U1_3
                     370M          8    1   F     1 != V4_2
                     370M         12    3   F     1  = U3_1
                     370M          7    4   F    -1 != U3_0
                     370M          7    5   F     0  = W3_0
                     370M          9    6         1 != V4_1
                     370M          7    2   F     1  = U0_3
                     370M          8    7   F     0  = W1_0
                     380M          5    8            -
                     380M          6    1         1 != U2_0
                     380M          7    6         1 != V2_1
                     380M          8    4         1  = U2_1
 ! Time = 3896.01s, Average fail depth = 19, Memory usage = 1.6 GB
 !               Branches  Non-fixed    W       Branch decision
                     380M          7    5         1  = U3_1
                     380M          8    3   F    -1 != W2_1
                     380M          9    2   F    -1  = V1_3
                     380M         10    7   F    -1  = U2_2
                     390M          5    8   F    -1  = W2_2
                     390M          8    1   F    -1  = W0_3
                     390M          7    6   F     0  = U4_0
                     390M          7    4        -1  = W0_0
                     390M         10    5   F     1  = V0_2
                     390M          7    3        -1  = U1_1
                     390M          7    2        -1  = W3_0
                     390M          9    7         1 != V1_3
                     400M          5    8         0  = U1_2
                     400M          9    1        -1  = V3_3
                     400M          9    4   F     0 != W3_1
                     400M          8    6   F     1  = U4_1
                     400M          8    5         1 != W1_1
                     400M         11    3         0  = W2_3
                     400M          9    2   F    -1  = U4_1
                     400M         10    7   F     0 != W4_0
 ! Time = 4137.04s, Average fail depth = 19, Memory usage = 1.7 GB
 !               Branches  Non-fixed    W       Branch decision
                     410M          6    8   F     1 != W0_2
                     410M          8    1         1  = U1_0
                     410M          7    6        -1  = U2_1
                     410M          8    4   F    -1  = V0_2
                     410M          8    5   F    -1 != U3_1
                     410M          7    3   F    -1  = W4_1
                     410M          9    2         1 != V2_2
                     410M          7    7         0 != U0_0
                     420M          6    8   F     0  = W0_2
                     420M          8    1         1  = V2_2
                     420M          8    6   F    -1  = W1_1
                     420M          8    4         1 != U0_0
                     420M          7    5        -1  = W3_0
                     420M          7    3         1  = V4_2
                     420M          8    2         0 != V2_1
                     420M         13    7        -1 != U3_0
                     430M          6    8   F     1  = W2_3
                     430M          9    1   F     0  = W0_3
                     430M          9    4   F    -1  = W3_1
                     430M         10    5        -1 != U4_1
 ! Time = 4406.52s, Average fail depth = 19, Memory usage = 1.8 GB
 !               Branches  Non-fixed    W       Branch decision
                     430M          7    6   F     1  = W2_0
                     430M         10    3         0 != W2_2
                     430M          7    2         0 != U2_0
                     430M          9    7   F     0  = V4_2
                     440M          6    8            -
                     440M         10    1        -1  = U4_0
                     440M         10    4   F    -1  = W0_1
                     440M          7    5         1  = V2_2
                     440M          8    6         1  = U0_1
                     440M          8    2   F     0  = U3_2
                     440M          6    3        -1  = U1_1
                     440M          9    7   F     1  = U1_3
                     450M          6    8        -1  = W4_3
                     450M          9    1         0  = W1_0
                     450M          8    4   F    -1 != V2_3
                     450M          7    5   F    -1 != U2_3
                     450M          9    6         1 != U3_1
                     450M          8    2   F     0 != W4_0
                     450M          7    3   F    -1  = V4_1
                     450M          9    7        -1 != U1_0
 ! Time = 4645.65s, Average fail depth = 19, Memory usage = 1.9 GB
 !               Branches  Non-fixed    W       Branch decision
                     460M          6    8            -
                     460M          9    1         1  = W0_1
                     460M          8    4   F    -1 != V0_2
                     460M          8    5         1 != V3_2
                     460M          8    6   F     0 != U1_1
                     460M          7    2   F    -1  = V2_0
                     460M         10    3        -1 != W2_3
                     460M          8    7         0  = U0_1
                     470M          5    8   F     0  = U0_3
                     470M          9    1   F    -1  = W2_0
                     470M          8    4   F     1 != W2_0
                     470M          8    5   F     0  = U3_0
                     470M          9    6   F     1 != U1_1
                     470M          7    3         0  = W3_1
                     470M          8    2         0 != V1_1
                     470M          7    7         1  = V3_0
                     480M          4    8   F        -
                     480M          8    1         1  = U2_1
                     480M          7    4   F    -1 != U2_1
                     480M          7    6   F     1 != U4_3
 ! Time = 4929.50s, Average fail depth = 18, Memory usage = 2.1 GB
 !               Branches  Non-fixed    W       Branch decision
                     480M          9    5   F     0  = V1_2
                     480M          8    3         1 != V0_1
                     480M          7    2         0  = W1_1
                     480M          8    7   F    -1  = V2_1
                     490M          5    8   F        -
                     490M          9    1   F     0  = V1_3
                     490M          8    6        -1  = V2_1
                     490M          8    4        -1  = W4_3
                     490M          8    5         1 != U4_1
                     490M          7    2         0  = W3_1
                     490M          8    3   F    -1 != V3_2
                     490M          9    7        -1  = W0_3
                     500M          4    8         0  = W0_2
                     500M          8    1        -1 != U4_3
                     500M          9    6         0 != V2_2
                     500M          8    4         1  = V0_1
                     500M          8    5   F     0 != U0_0
                     500M          9    2        -1 != U3_0
                     500M         10    3         0  = V2_3
                     500M         10    7        -1  = U1_1
 ! Time = 5167.15s, Average fail depth = 18, Memory usage = 2.1 GB
 !               Branches  Non-fixed    W       Branch decision
                     510M          6    8   F    -1 != W3_1
                     510M          7    1         0 != W1_3
                     510M          7    6   F    -1  = V1_3
                     510M         10    4        -1 != U1_1
                     510M          9    2   F     0  = V0_0
                     510M          8    5        -1  = V2_3
                     510M          7    3        -1 != V0_2
                     510M         11    7        -1  = U0_1
                     520M          6    8         0 != U3_0
                     520M          8    1        -1  = V0_2
                     520M          7    6        -1  = V2_3
                     520M          8    2         1 != U1_0
                     520M          9    5         0  = U0_2
                     520M          8    4         1 != W4_1
                     520M         10    7   F     1  = W2_1
                     520M         11    3   F     0 != V1_1
                     530M          6    8   F     0  = W1_1
                     530M         10    1         1  = W0_0
                     530M          7    6   F     1  = U3_0
                     530M          7    5   F     1 != U0_1
 ! Time = 5457.52s, Average fail depth = 18, Memory usage = 2.3 GB
 !               Branches  Non-fixed    W       Branch decision
                     530M          8    2   F     0 != W2_1
                     530M          8    4   F     0 != V1_3
                     530M         10    7   F     0  = U0_0
                     530M          7    3        -1  = V3_2
                     540M          6    8         0  = V2_2
                     540M          8    1        -1 != W4_1
                     540M          7    6         1  = V1_3
                     540M         12    2         0  = V2_3
                     540M          8    5   F     0  = U4_0
                     540M          8    4   F     0  = V0_1
                     540M          7    3        -1 != W4_1
                     540M          9    7   F     0 != V4_3
                     550M          4    8   F    -1 != V1_2
                     550M          8    1         0 != V2_3
                     550M          8    6         1  = V3_1
                     550M          8    2        -1  = V0_0
                     550M          8    5   F     0  = V0_1
                     550M          8    3   F    -1  = V1_3
                     550M          8    4   F    -1  = W4_0
                     550M         13    7   F     0  = V2_1
 ! Time = 5683.58s, Average fail depth = 18, Memory usage = 2.4 GB
 !               Branches  Non-fixed    W       Branch decision
                     560M          6    8         1  = U2_2
                     560M          9    1   F     1  = U0_3
                     560M          8    6         0  = W0_3
                     560M          8    2         0 != U0_2
                     560M         12    3   F     1  = V1_2
                     560M          8    5        -1  = U1_3
                     560M          9    4   F     1  = V2_1
                     560M         14    7   F     1  = U4_1
                     570M          6    8   F        -
                     570M          8    1         0  = V4_0
                     570M          8    6   F     1 != V2_3
                     570M          8    2   F    -1  = U4_1
                     570M         14    3        -1 != W2_1
                     570M          8    4   F     1 != V2_0
                     570M          7    7   F    -1 != W2_0
                     570M          9    5        -1 != V0_2
                     580M          6    8   F     1 != V3_3
                     580M          8    1   F    -1 != W1_3
                     580M          8    6   F     1  = V3_3
                     580M          7    2        -1 != V2_3
 ! Time = 5978.47s, Average fail depth = 19, Memory usage = 2.5 GB
 !               Branches  Non-fixed    W       Branch decision
                     580M          8    4   F     1  = V0_3
                     580M          7    3   F    -1 != V4_2
                     580M          8    7        -1  = V0_0
                     580M          8    5   F     0 != V1_3
                     590M          6    8         0 != W4_2
                     590M         10    1   F    -1 != W2_0
                     590M          7    6   F    -1 != W3_3
                     590M          8    2         0 != V2_1
                     590M          8    4        -1 != V3_2
                     590M          7    3        -1  = U1_1
                     590M          9    7         1 != U4_3
                     590M          7    5         0 != W1_1
                     600M          5    8        -1 != W1_1
                     600M         10    1        -1  = W1_1
                     600M          8    6        -1  = W3_3
                     600M          8    2        -1 != V0_2
                     600M          9    4   F    -1  = V0_2
                     600M          9    5   F     1  = W1_0
                     600M         12    3        -1  = W3_3
                     600M          7    7   F     1  = V0_2
 ! Time = 6228.47s, Average fail depth = 18, Memory usage = 2.6 GB
 !               Branches  Non-fixed    W       Branch decision
                     610M          6    8            -
                     610M          9    1         1 != W2_0
                     610M         11    6   F     1  = W0_3
                     610M          7    2   F    -1  = U4_1
                     610M          9    4   F    -1 != W4_1
                     610M          9    5         0 != W3_0
                     610M          8    3         0 != W3_2
                     620M          5    8        -1 != W3_1
                     620M          8    1         1  = V1_3
                     620M          9    6   F     1 != U2_0
                     610M          9    7   F     0  = U3_0
                     620M          7    2         1  = U2_3
                     620M          9    4   F     1 != V4_1
                     620M          8    3         0  = U1_3
                     620M          8    5        -1  = V1_1
                     630M          7    1   F     1  = V2_0
                     630M          5    8            -
                     630M          8    6        -1 != V3_1
                     620M          7    7   F     0  = W4_1
                     630M          7    2         1  = U1_1
 ! Time = 6492.72s, Average fail depth = 18, Memory usage = 2.7 GB
 !               Branches  Non-fixed    W       Branch decision
                     630M         10    4   F    -1 != W2_1
                     630M          8    3        -1  = W3_0
                     630M          8    5        -1 != U4_0
                     640M          8    1         0 != V1_0
                     640M          4    8   F     0 != V1_2
                     630M          8    7   F     0 != V4_1
                     640M          9    6   F    -1  = U3_1
                     640M          8    2   F    -1  = U2_3
                     640M         10    4   F    -1  = W1_0
                     640M         12    3   F     1 != U3_3
                     640M          7    5         1 != V0_1
                     650M          6    8        -1  = U3_3
                     650M         10    1   F     1 != U0_3
                     640M          7    7   F     1  = U0_1
                     650M          8    6        -1  = V3_1
                     650M          8    2        -1  = V4_0
                     650M          8    4         0 != V0_1
                     650M         10    3   F    -1  = U3_0
                     650M          8    5   F     0 != U1_1
                     660M          6    8   F     0  = U0_3
 ! Time = 6751.65s, Average fail depth = 18, Memory usage = 2.8 GB
 !               Branches  Non-fixed    W       Branch decision
                     650M          7    7         1 != W3_0
                     660M          8    1        -1  = W4_0
                     660M          9    6   F     0  = W0_1
                     660M         11    2         0  = U1_1
                     660M         10    4   F    -1 != U0_0
                     660M          9    5   F     1 != W0_3
                     660M         11    3   F    -1 != V0_1
                     670M          5    8            -
                     670M          8    1         0 != U3_1
                     660M          7    7        -1 != W0_2
                     670M          8    6         0  = V4_0
                     670M          8    2         1  = V2_2
                     670M          7    4         1  = V1_3
                     670M          8    5        -1 != U4_1
                     670M          8    3         1  = U1_0
                     680M          5    8            -
                     680M          9    1         0  = U3_0
                     670M          7    7        -1  = V2_1
                     680M          8    6        -1 != V2_3
                     680M          9    2         1 != U1_0
 ! Time = 6997.81s, Average fail depth = 18, Memory usage = 2.9 GB
 !               Branches  Non-fixed    W       Branch decision
                     680M          8    4         0  = V0_2
                     680M         10    5   F     1  = W2_3
                     690M          5    8   F        -
                     680M          7    3        -1 != V3_2
                     690M          8    1         0  = U4_1
                     680M         10    7         1  = U2_1
                     690M          8    6   F    -1 != V3_1
                     690M          9    2         1 != V4_3
                     690M         10    4   F     1  = V2_2
submitit WARNING (2023-04-30 15:42:42,351) - Bypassing signal SIGCONT
submitit INFO (2023-04-30 15:42:42,365) - Job has timed out. Ran 119 minutes out of requested 121 minutes.
submitit WARNING (2023-04-30 15:42:42,365) - Caught signal SIGUSR2 on cpunode24: this job is timed-out.
submitit INFO (2023-04-30 15:42:42,365) - Not checkpointing nor requeuing since I am a slave (procid=4).
                     690M          8    5   F    -1 != W1_1
                     700M          5    8         0  = V1_1
                     690M          8    3   F    -1  = V3_1
                     700M          8    1         0  = U2_0
                     700M          8    6   F     1  = W0_1
 ! ----------------------------------------------------------------------------
 ! Search terminated by limit, no solution found.
 ! ----------------------------------------------------------------------------
 ! Number of branches     : 5581110679
 ! Number of fails        : 2743321033
 ! Total memory usage     : 3.1 GB (3.1 GB CP Optimizer + 0.0 GB Concert)
 ! Time spent in solve    : 7200.06s (7200.06s engine + 0.01s extraction)
 ! Search speed (br. / s) : 775148.9
 ! ----------------------------------------------------------------------------
Unknown
Saving stats to: /h/30/pashootan/Matrix-Mult-CP/logs/2x2x2_5_Apr30_13:43:41/27528_4_stats.csv
submitit INFO (2023-04-30 15:43:44,343) - Job completed successfully
